language ESSENCE' 1.0

letting fixed be 
[
    [0,7,0,4,0,8,0,2,9],
    [0,0,2,0,0,0,0,0,4],
    [8,5,4,0,2,0,0,0,7],
    [0,0,8,3,7,4,2,0,0],
    [0,2,0,0,0,0,0,0,0],
    [0,0,3,2,6,1,7,0,0],
    [0,0,0,0,9,3,6,1,2],
    [2,0,0,0,0,0,4,0,3],
    [1,3,0,6,4,2,0,7,0]
]
